============================[ Problem Statistics ]=============================|                                                                             ||  Number of variables:          4242                                         ||  Number of clauses:            9950                                         ||  Parse time:                   0.35 s                                       ||                                                                             |============================[ Search Statistics ]==============================| Conflicts |          ORIGINAL         |          LEARNT          | Progress ||           |    Vars  Clauses Literals |    Limit  Clauses Lit/Cl |          |===============================================================================|       100 |    1591     6155   540006 |     2256      100     53 | 62.501 % |===============================================================================restarts              : 2conflicts             : 199            (380 /sec)decisions             : 370            (0.00 % random) (706 /sec)propagations          : 10063          (19204 /sec)conflict literals     : 13997          (95.16 % deleted)CPU time              : 0.524 sSATISFIABLE